<?xml version = "1.0" standalone="yes"?>
<!-- This file has been generated by DOcplex version 2.23.222  -->
<CPLEXSolution version="1.0">
 <header
   problemName="CVRP"
   objectiveValue="17750.4"
  />
 <variables>
  <variable name="x_0_1" index="0" value="1.00000"/>
  <variable name="x_0_2" index="1" value="1.00000"/>
  <variable name="x_0_3" index="2" value="1.00000"/>
  <variable name="x_0_4" index="3" value="1.00000"/>
  <variable name="x_0_5" index="4" value="1.00000"/>
  <variable name="x_0_7" index="6" value="1.00000"/>
  <variable name="x_0_8" index="7" value="1.00000"/>
  <variable name="x_0_9" index="8" value="1.00000"/>
  <variable name="x_0_11" index="10" value="1.00000"/>
  <variable name="x_0_12" index="11" value="1.00000"/>
  <variable name="x_0_14" index="13" value="1.00000"/>
  <variable name="x_0_15" index="14" value="1.00000"/>
  <variable name="x_0_17" index="16" value="1.00000"/>
  <variable name="x_0_18" index="17" value="1.00000"/>
  <variable name="x_0_20" index="19" value="1.00000"/>
  <variable name="x_0_23" index="22" value="1.00000"/>
  <variable name="x_0_25" index="24" value="1.00000"/>
  <variable name="x_1_0" index="25" value="1.00000"/>
  <variable name="x_2_0" index="50" value="1.00000"/>
  <variable name="x_3_19" index="93" value="1.00000"/>
  <variable name="x_4_0" index="100" value="1.00000"/>
  <variable name="x_5_22" index="146" value="1.00000"/>
  <variable name="x_6_0" index="150" value="1.00000"/>
  <variable name="x_7_0" index="175" value="1.00000"/>
  <variable name="x_8_0" index="200" value="1.00000"/>
  <variable name="x_9_13" index="237" value="1.00000"/>
  <variable name="x_10_0" index="250" value="1.00000"/>
  <variable name="x_11_21" index="295" value="1.00000"/>
  <variable name="x_12_0" index="300" value="1.00000"/>
  <variable name="x_13_0" index="325" value="1.00000"/>
  <variable name="x_14_24" index="373" value="1.00000"/>
  <variable name="x_15_0" index="375" value="1.00000"/>
  <variable name="x_16_0" index="400" value="1.00000"/>
  <variable name="x_17_0" index="425" value="1.00000"/>
  <variable name="x_18_0" index="450" value="1.00000"/>
  <variable name="x_19_0" index="475" value="1.00000"/>
  <variable name="x_20_0" index="500" value="1.00000"/>
  <variable name="x_21_10" index="535" value="1.00000"/>
  <variable name="x_22_6" index="556" value="1.00000"/>
  <variable name="x_23_0" index="575" value="1.00000"/>
  <variable name="x_24_0" index="600" value="1.00000"/>
  <variable name="x_25_16" index="641" value="1.00000"/>
  <variable name="u_1" index="650" value="75.00000"/>
  <variable name="u_2" index="651" value="64.00000"/>
  <variable name="u_3" index="652" value="30.00000"/>
  <variable name="u_4" index="653" value="72.00000"/>
  <variable name="u_5" index="654" value="8.00000"/>
  <variable name="u_6" index="655" value="69.00000"/>
  <variable name="u_7" index="656" value="61.00000"/>
  <variable name="u_8" index="657" value="78.00000"/>
  <variable name="u_9" index="658" value="11.00000"/>
  <variable name="u_10" index="659" value="78.00000"/>
  <variable name="u_11" index="660" value="42.00000"/>
  <variable name="u_12" index="661" value="30.00000"/>
  <variable name="u_13" index="662" value="72.00000"/>
  <variable name="u_14" index="663" value="26.00000"/>
  <variable name="u_15" index="664" value="78.00000"/>
  <variable name="u_16" index="665" value="78.00000"/>
  <variable name="u_17" index="666" value="69.00000"/>
  <variable name="u_18" index="667" value="76.00000"/>
  <variable name="u_19" index="668" value="60.00000"/>
  <variable name="u_20" index="669" value="57.00000"/>
  <variable name="u_21" index="670" value="57.00000"/>
  <variable name="u_22" index="671" value="58.00000"/>
  <variable name="u_23" index="672" value="75.00000"/>
  <variable name="u_24" index="673" value="69.00000"/>
  <variable name="u_25" index="674" value="33.00000"/>
 </variables>
</CPLEXSolution>
